0000000000000000
0000000000000000
0000000000000000
0000000000000000
0000000000100000
0000010101100000
0000000000100000
0000000000100000
0000000000100000
0000000000100000
0000000000100000
0000011111100000
0000111111100000
0000000000000000
0000000000000000
0000000000000000
